NAME 
ROWS
 N  OBJ
 L  R0      
 L  R1      
 L  R2      
 E  R3      
 E  R4      
 E  R5      
 E  R6      
 E  R7      
 E  R8      
 E  R9      
 E  R10     
 E  R11     
 E  R12     
COLUMNS
    MARKER    'MARKER'                 'INTORG'
    I0(8)     OBJ       -16
    I0(8)     R0        -76
    I0(8)     R1        23
    I0(8)     R2        70
    I0(8)     R3        13
    I0(8)     R4        12
    I0(8)     R5        14
    I0(8)     R7        -1
    I0(8)     R12       1
    I1(9)     OBJ       157
    I1(9)     R0        34
    I1(9)     R1        -196
    I1(9)     R2        -150
    I1(9)     R3        15
    I1(9)     R4        6
    I1(9)     R6        7
    I1(9)     R7        8
    I1(9)     R8        19
    I1(9)     R12       1
    I2(5)     OBJ       123
    I2(5)     R0        -66
    I2(5)     R1        -49
    I2(5)     R2        -183
    I2(5)     R6        5
    I2(5)     R12       1
    I3(6)     OBJ       108
    I3(6)     R0        129
    I3(6)     R1        -71
    I3(6)     R2        48
    I3(6)     R4        4
    I3(6)     R8        5
    I3(6)     R12       1
    I4(8)     OBJ       46
    I4(8)     R0        -98
    I4(8)     R1        191
    I4(8)     R2        -11
    I4(8)     R3        17
    I4(8)     R4        16
    I4(8)     R7        19
    I4(8)     R8        9
    I4(8)     R12       1
    I5(6)     OBJ       115
    I5(6)     R0        -35
    I5(6)     R1        40
    I5(6)     R2        -106
    I5(6)     R3        8
    I5(6)     R8        6
    I5(6)     R12       1
    MARKER    'MARKER'                 'INTEND'
    C6(8)     OBJ       -8
    C6(8)     R0        -9
    C6(8)     R1        -10
    C6(8)     R2        2
    C6(8)     R5        1
    C6(8)     R6        -1
    C6(8)     R7        6
    C6(8)     R9        3
    C6(8)     R11       11
    C7(5)     OBJ       5
    C7(5)     R0        9
    C7(5)     R1        5
    C7(5)     R5        4
    C7(5)     R6        7
    C7(5)     R9        9
    C8(4)     OBJ       1
    C8(4)     R0        -1
    C8(4)     R2        -2
    C8(4)     R5        7
    C8(4)     R11       10
    C9(9)     OBJ       6
    C9(9)     R0        9
    C9(9)     R1        2
    C9(9)     R2        3
    C9(9)     R3        -1
    C9(9)     R4        2
    C9(9)     R5        11
    C9(9)     R6        9
    C9(9)     R8        8
    C9(9)     R11       10
    C10(1)    R3        1
    C11(1)    R4        1
    C12(1)    R5        1
    C13(1)    R6        1
    C14(1)    R7        1
    C15(1)    R8        1
    C16(1)    R9        1
    C17(1)    R10       1
    C18(1)    R11       1
    C19(1)    R12       1
RHS
    RHS1      R0        -2.2809090909090909e+02
    RHS1      R1        -3.8545454545454547e+01
    RHS1      R2        1.5690909090909091e+02
    RHS1      R3        83
    RHS1      R4        58
    RHS1      R5        93
    RHS1      R6        72
    RHS1      R7        72
    RHS1      R8        84
    RHS1      R9        79
    RHS1      R10       53
    RHS1      R11       93
    RHS1      R12       2
BOUNDS
 UP BND1      I0(8)     2
 UP BND1      I1(9)     2
 UP BND1      I2(5)     2
 UP BND1      I3(6)     2
 UP BND1      I4(8)     2
 UP BND1      I5(6)     2
ENDATA
